NAME: ACTUAL_TOURS/amz1781
TYPE: TOUR
COMMENT: RouteID_beb8afd2-fae9-4a20-b68f-6dc5284ec2ef
DIMENSION: 94
TOUR_SECTION
72
54
18
9
15
7
16
34
85
49
27
24
67
73
62
89
31
36
88
83
40
14
55
87
6
28
3
61
10
69
86
20
32
63
43
22
64
11
39
90
38
66
41
30
91
19
93
46
65
5
12
92
76
21
79
1
47
29
70
48
81
33
37
68
53
75
17
84
82
78
25
35
13
26
80
23
60
56
58
77
71
59
57
94
44
50
45
4
2
74
8
52
42
51
-1
EOF
